data;


param d:= 100;
param r:=5;
param p:=0.860000;
param M:=1000;
param U:=
         1         1       -1.610725e+00
         2         1       -3.638759e-01
         3         1       -4.338397e-01
         4         1       -2.919754e-01
         5         1        8.351365e-01
         6         1        5.834471e-01
         7         1       -1.163197e+00
         8         1       -6.570906e-01
         9         1        3.284403e-01
        10         1        1.889527e+00
        11         1       -2.416656e-01
        12         1        1.613214e+00
        13         1       -2.188919e-01
        14         1       -7.882952e-01
        15         1       -6.139108e-01
        16         1        1.367691e+00
        17         1       -1.370185e+00
        18         1        2.536966e-01
        19         1        1.720139e+00
        20         1        3.968607e-02
        21         1       -1.795791e+00
        22         1        1.296006e+00
        23         1        1.287300e+00
        24         1        1.263484e+00
        25         1       -8.520842e-01
        26         1       -6.852031e-01
        27         1        1.612712e+00
        28         1        8.462574e-01
        29         1       -9.546079e-01
        30         1        1.841979e+00
        31         1        1.649709e+00
        32         1       -9.694819e-02
        33         1        8.170078e-01
        34         1        4.165207e-01
        35         1       -2.247270e+00
        36         1        1.937561e+00
        37         1        2.840685e-01
        38         1       -1.775298e+00
        39         1        1.773637e+00
        40         1        1.113831e+00
        41         1        8.743507e-01
        42         1       -9.968375e-01
        43         1       -2.511167e-01
        44         1       -1.262671e+00
        45         1        1.357312e+00
        46         1       -5.823986e-01
        47         1       -1.263867e-01
        48         1       -9.376770e-01
        49         1       -5.043912e-01
        50         1       -8.818397e-01
        51         1       -1.914212e-01
        52         1        4.029961e-02
        53         1       -5.066803e-01
        54         1        9.165103e-01
        55         1        3.704508e-01
        56         1        3.306939e-01
        57         1       -5.245068e-01
        58         1       -9.437985e-01
        59         1        7.096634e-01
        60         1        1.916762e-01
        61         1       -2.044397e+00
        62         1        2.805032e-01
        63         1        8.651979e-01
        64         1       -1.687562e+00
        65         1       -5.065835e-01
        66         1       -5.821316e-01
        67         1       -1.489229e+00
        68         1        8.219383e-01
        69         1       -2.494421e-01
        70         1       -4.963554e-01
        71         1       -1.792101e+00
        72         1        7.783249e-01
        73         1        5.485180e-01
        74         1        8.241602e-01
        75         1        6.536648e-01
        76         1        1.251111e+00
        77         1       -5.979688e-01
        78         1       -5.257378e-01
        79         1       -7.164031e-01
        80         1        5.751306e-01
        81         1        2.504677e+00
        82         1        1.483548e+00
        83         1       -1.377187e+00
        84         1       -2.161720e-01
        85         1        1.988307e+00
        86         1        8.545395e-01
        87         1       -1.717053e-01
        88         1        5.058786e-01
        89         1        1.723398e-01
        90         1        2.256979e-02
        91         1       -6.473588e-01
        92         1        2.609193e-01
        93         1       -1.989961e+00
        94         1       -1.372217e+00
        95         1        1.404020e+00
        96         1       -2.119864e+00
        97         1       -1.571078e+00
        98         1        1.554440e+00
        99         1        2.508190e+00
       100         1        7.560096e-01
         1         2       -1.523557e+00
         2         2        1.266766e+00
         3         2        3.325783e-01
         4         2       -4.991549e-01
         5         2       -9.314982e-02
         6         2        2.298597e-01
         7         2        6.519814e-01
         8         2        1.278916e-02
         9         2       -1.110641e+00
        10         2        1.580463e+00
        11         2        3.806245e-01
        12         2        9.816936e-01
        13         2        2.590620e-01
        14         2        2.726999e-01
        15         2        2.602812e+00
        16         2        5.040703e-01
        17         2        1.561529e+00
        18         2       -3.247669e-01
        19         2       -1.160221e+00
        20         2        1.248890e+00
        21         2        6.503034e-03
        22         2       -9.293795e-01
        23         2        1.314878e+00
        24         2       -5.278583e-02
        25         2       -1.336113e+00
        26         2       -3.184178e-01
        27         2       -1.126655e+00
        28         2        7.886697e-01
        29         2        5.908690e-01
        30         2        6.117902e-02
        31         2       -1.111995e-01
        32         2        1.840390e+00
        33         2        3.042880e-02
        34         2        4.076261e-01
        35         2       -4.343889e-01
        36         2       -1.022060e+00
        37         2       -5.708478e-01
        38         2       -9.334049e-01
        39         2       -1.533668e+00
        40         2       -1.015370e+00
        41         2       -6.091203e-01
        42         2        1.349751e-02
        43         2        4.783638e-02
        44         2       -1.634671e+00
        45         2        5.272839e-01
        46         2        1.355558e+00
        47         2        4.803501e-02
        48         2       -5.531376e-01
        49         2        2.241324e+00
        50         2       -7.542712e-02
        51         2        5.265855e-01
        52         2        3.735255e-01
        53         2       -8.113598e-01
        54         2       -7.153632e-01
        55         2       -6.076198e-01
        56         2        1.065523e+00
        57         2        2.404437e-01
        58         2        7.168721e-01
        59         2       -3.539027e-02
        60         2       -2.961976e-01
        61         2        6.817507e-01
        62         2        1.103728e+00
        63         2       -1.894408e+00
        64         2        2.505924e-01
        65         2       -4.592516e-01
        66         2       -4.405891e-01
        67         2        7.511925e-03
        68         2        8.326994e-01
        69         2       -4.129731e-01
        70         2       -2.346101e-01
        71         2       -3.493481e-01
        72         2        2.253707e+00
        73         2       -1.066007e+00
        74         2        1.047553e-01
        75         2        1.073678e-02
        76         2       -1.392025e-01
        77         2        5.729108e-01
        78         2        2.266242e-01
        79         2       -8.746447e-01
        80         2        2.091077e+00
        81         2        1.794294e+00
        82         2        1.372970e+00
        83         2        1.609064e-01
        84         2       -8.436694e-01
        85         2        9.061049e-01
        86         2       -1.120608e+00
        87         2        5.448344e-01
        88         2       -2.740488e-01
        89         2        1.046745e+00
        90         2       -2.286868e-01
        91         2       -2.119134e+00
        92         2       -9.254483e-01
        93         2       -1.951661e+00
        94         2        1.063267e+00
        95         2       -5.198641e-01
        96         2       -6.658251e-01
        97         2        1.776160e+00
        98         2       -3.745353e-01
        99         2       -1.386334e+00
       100         2       -8.332645e-01
         1         3        4.224080e-01
         2         3        1.571193e+00
         3         3        9.787851e-02
         4         3       -2.478484e-01
         5         3        3.319049e-01
         6         3       -1.543840e+00
         7         3       -8.133709e-02
         8         3        8.336322e-02
         9         3       -8.087731e-01
        10         3       -8.019911e-01
        11         3        3.003885e-01
        12         3        4.039366e-01
        13         3        4.707603e-01
        14         3        4.867661e-01
        15         3       -1.173876e-01
        16         3       -8.810815e-01
        17         3       -9.037386e-01
        18         3       -3.334170e-01
        19         3        3.650000e-01
        20         3       -7.385352e-01
        21         3       -4.888363e-01
        22         3       -1.707680e-01
        23         3       -3.169142e-01
        24         3        2.704935e-01
        25         3        1.730960e+00
        26         3        1.149685e+00
        27         3       -2.491892e-01
        28         3        5.669625e-01
        29         3        8.434759e-01
        30         3        1.751097e+00
        31         3       -1.757407e-01
        32         3       -4.646852e-01
        33         3       -5.712886e-01
        34         3       -1.225085e-01
        35         3       -4.278846e-01
        36         3        1.813296e-01
        37         3        1.551759e+00
        38         3       -1.306182e+00
        39         3        9.367627e-01
        40         3       -2.539131e-01
        41         3       -1.167583e+00
        42         3        4.120266e-01
        43         3       -5.029480e-02
        44         3       -5.004051e-01
        45         3       -5.395841e-01
        46         3       -9.556959e-01
        47         3        8.593659e-01
        48         3        3.856773e-01
        49         3        1.944245e+00
        50         3        1.136939e+00
        51         3       -4.223137e-01
        52         3       -5.399627e-01
        53         3        1.347752e+00
        54         3        1.276308e+00
        55         3       -1.056760e-01
        56         3        2.150894e-01
        57         3        8.067503e-01
        58         3       -9.066184e-01
        59         3        2.841506e-01
        60         3       -6.018486e-02
        61         3       -1.110890e-01
        62         3       -9.545166e-01
        63         3        1.179054e-01
        64         3        1.260013e+00
        65         3       -1.507291e+00
        66         3       -1.107746e-01
        67         3        1.737373e+00
        68         3        1.110809e+00
        69         3       -8.301698e-01
        70         3       -2.822209e-01
        71         3        3.959525e-01
        72         3       -2.352213e+00
        73         3       -4.787197e-01
        74         3       -1.278311e-01
        75         3       -6.906862e-01
        76         3       -3.855140e-01
        77         3       -4.373840e-01
        78         3       -5.276070e-01
        79         3       -1.177875e+00
        80         3        1.502119e+00
        81         3        7.010625e-01
        82         3       -7.676167e-01
        83         3        2.245547e+00
        84         3       -8.429976e-01
        85         3        4.506489e-01
        86         3        1.585307e+00
        87         3       -1.968206e+00
        88         3       -1.446423e+00
        89         3        3.911019e-01
        90         3        1.440554e+00
        91         3       -4.675659e-01
        92         3        3.071624e-01
        93         3       -1.306282e+00
        94         3       -9.932322e-01
        95         3       -6.075790e-02
        96         3        9.299421e-01
        97         3       -5.111366e-01
        98         3       -8.659671e-01
        99         3        9.746098e-01
       100         3       -1.869067e+00
         1         4       -1.868928e+00
         2         4       -1.087624e+00
         3         4       -5.008180e-01
         4         4       -8.748765e-01
         5         4        4.379371e-01
         6         4       -8.186589e-01
         7         4       -4.094971e-01
         8         4       -2.372941e-01
         9         4       -3.363976e-01
        10         4       -4.480659e-01
        11         4        8.762848e-01
        12         4        1.443018e+00
        13         4       -1.443956e+00
        14         4        9.726337e-01
        15         4        7.043452e-01
        16         4        3.930510e-01
        17         4       -9.080265e-03
        18         4        3.852864e-01
        19         4       -5.776794e-01
        20         4       -5.969111e-01
        21         4       -1.824478e+00
        22         4       -2.006253e+00
        23         4        4.796893e-01
        24         4       -9.595407e-01
        25         4       -2.564580e-01
        26         4        1.183840e+00
        27         4       -3.437425e-01
        28         4        1.249385e+00
        29         4       -1.634023e+00
        30         4       -1.757827e+00
        31         4       -5.613741e-01
        32         4        1.511740e-01
        33         4        4.329969e-01
        34         4       -5.555224e-01
        35         4        3.688477e-01
        36         4       -9.424071e-02
        37         4       -1.036720e+00
        38         4        6.400415e-02
        39         4       -7.753555e-02
        40         4        6.271926e-01
        41         4       -1.025766e+00
        42         4        4.957522e-01
        43         4       -1.261314e+00
        44         4       -3.466491e-01
        45         4       -9.682221e-01
        46         4        1.100074e+00
        47         4       -9.855676e-01
        48         4        1.162544e+00
        49         4       -9.970072e-01
        50         4       -3.157294e-01
        51         4       -1.720042e+00
        52         4        1.378349e-01
        53         4       -8.626971e-01
        54         4       -4.057035e-01
        55         4       -4.676473e-01
        56         4       -8.956346e-02
        57         4       -5.490466e-01
        58         4       -2.537406e-01
        59         4       -2.003782e-01
        60         4        1.056527e+00
        61         4       -2.108090e+00
        62         4        3.896270e-01
        63         4        5.506479e-01
        64         4        2.049714e-02
        65         4       -1.544992e+00
        66         4        1.057645e+00
        67         4        3.299994e-01
        68         4        3.438986e-01
        69         4        2.583372e-01
        70         4       -1.070698e+00
        71         4       -1.090980e+00
        72         4        1.658769e+00
        73         4       -6.091754e-01
        74         4       -6.190523e-01
        75         4       -6.742775e-03
        76         4       -4.499282e-01
        77         4        2.262740e+00
        78         4       -1.877219e+00
        79         4       -1.192577e+00
        80         4       -8.854363e-01
        81         4        5.763198e-01
        82         4        4.599948e-01
        83         4        1.298288e+00
        84         4       -7.870587e-01
        85         4        4.496262e-01
        86         4       -8.655866e-01
        87         4       -1.473891e-01
        88         4       -7.990006e-02
        89         4        1.082281e+00
        90         4       -4.285842e-01
        91         4        1.705701e+00
        92         4        4.534314e-01
        93         4        1.412079e-01
        94         4        6.904659e-02
        95         4        6.776009e-01
        96         4       -5.018720e-01
        97         4        4.771897e-01
        98         4       -4.238500e-02
        99         4        4.094853e-01
       100         4        1.404731e+00
         1         5       -9.113025e-01
         2         5       -2.521597e+00
         3         5        1.801124e-02
         4         5        4.265143e-02
         5         5       -7.289338e-02
         6         5       -3.690939e-01
         7         5        2.372527e-01
         8         5       -5.937663e-01
         9         5        1.347191e-02
        10         5        2.843342e-01
        11         5       -9.358042e-01
        12         5        1.192275e+00
        13         5        7.879421e-01
        14         5       -1.298228e+00
        15         5       -1.540193e+00
        16         5        2.038509e+00
        17         5       -1.949759e+00
        18         5       -2.096644e-02
        19         5        1.094003e+00
        20         5       -2.982788e+00
        21         5        3.697626e-01
        22         5       -3.798872e-01
        23         5        8.567136e-01
        24         5        5.468097e-01
        25         5        5.957974e-01
        26         5       -1.496408e-03
        27         5        3.770287e-01
        28         5        2.448204e-01
        29         5       -2.194682e+00
        30         5        1.276723e+00
        31         5       -1.212709e+00
        32         5        8.130256e-01
        33         5        6.168054e-01
        34         5        5.161159e-01
        35         5        1.450411e-01
        36         5        5.579934e-01
        37         5       -3.047504e-01
        38         5       -2.061821e-01
        39         5       -8.555228e-02
        40         5        9.180154e-01
        41         5       -8.570135e-02
        42         5       -3.459624e-01
        43         5       -9.331352e-01
        44         5       -1.293186e+00
        45         5       -3.593009e-01
        46         5        1.278386e-01
        47         5        4.324074e-01
        48         5        2.649777e-01
        49         5        1.938096e-01
        50         5       -8.592135e-01
        51         5        1.106788e+00
        52         5        1.038193e+00
        53         5        6.800281e-01
        54         5        2.126583e-01
        55         5        3.062369e-01
        56         5        2.558720e-01
        57         5       -3.489719e-01
        58         5       -3.805666e-01
        59         5       -1.127369e+00
        60         5        4.882187e-01
        61         5       -2.068714e-01
        62         5       -4.793124e-01
        63         5        1.366137e-01
        64         5        3.611863e-01
        65         5        1.367423e+00
        66         5       -1.337601e+00
        67         5       -9.870110e-03
        68         5       -1.617072e-01
        69         5       -1.585896e+00
        70         5       -8.578093e-01
        71         5        4.363591e-01
        72         5        2.071402e-01
        73         5       -1.183371e+00
        74         5        1.583719e+00
        75         5       -4.091636e-01
        76         5       -8.635516e-01
        77         5        5.626986e-01
        78         5        8.014266e-01
        79         5       -2.263989e+00
        80         5        2.563704e-02
        81         5       -1.191824e+00
        82         5        6.403359e-01
        83         5       -2.918351e-01
        84         5        4.725053e-01
        85         5       -5.436000e-01
        86         5       -5.348766e-01
        87         5        2.024205e-01
        88         5       -9.846647e-01
        89         5        1.131123e+00
        90         5       -1.552392e+00
        91         5       -2.508514e+00
        92         5       -8.678772e-01
        93         5       -5.099449e-01
        94         5       -6.280191e-01
        95         5       -9.375468e-01
        96         5       -7.769691e-01
        97         5       -1.112538e+00
        98         5       -8.379505e-01
        99         5        3.385112e-01
       100         5       -3.175959e-01
;

param theta:=
    1        7.531718e-01
    2       -9.633377e-01
    3       -5.867449e-01
    4        7.175461e-01
    5        2.069792e+00
;
param X_true:=
    1       -3.220546e+00
    2       -8.415876e+00
    3       -1.026651e+00
    4       -1.331138e-01
    5        6.873585e-01
    6       -2.275296e-01
    7       -1.259211e+00
    8       -1.955377e+00
    9        1.578341e+00
   10        6.381884e-01
   11       -2.033082e+00
   12        3.535509e+00
   13       -9.587288e-02
   14       -3.131183e+00
   15       -5.583369e+00
   16        5.562808e+00
   17       -6.048112e+00
   18        9.326326e-01
   19        4.048931e+00
   20       -7.341942e+00
   21       -1.615797e+00
   22       -2.542478e-01
   23        2.006253e+00
   24        1.287028e+00
   25        6.788866e-01
   26       -3.754118e-02
   27        2.979928e+00
   28        9.481783e-01
   29       -7.498116e+00
   30        1.682172e+00
   31       -1.460115e+00
   32        2.179836e-01
   33        2.508589e+00
   34        6.625508e-01
   35       -4.581878e-01
   36        3.424819e+00
   37       -1.521279e+00
   38       -5.235262e-02
   39        2.030943e+00
   40        4.316172e+00
   41        1.016980e+00
   42       -1.365892e+00
   43       -3.042153e+00
   44       -2.008020e+00
   45       -6.074873e-01
   46       -1.298041e-01
   47       -4.578904e-01
   48        9.829602e-01
   49       -3.994074e+00
   50       -3.263552e+00
   51        6.529487e-01
   52        2.235088e+00
   53        3.977009e-01
   54        7.796065e-01
   55        1.224649e+00
   56       -4.382564e-01
   57       -2.216294e+00
   58       -1.839243e+00
   59       -2.075331e+00
   60        2.233635e+00
   61       -4.072190e+00
   62       -1.004439e+00
   63        3.085294e+00
   64       -1.489447e+00
   65        2.666944e+00
   66       -1.958659e+00
   67       -1.931916e+00
   68       -9.228085e-01
   69       -2.400047e+00
   70       -2.526002e+00
   71       -1.125199e+00
   72        1.414261e+00
   73       -1.165504e+00
   74        3.428594e+00
   75        3.551360e-02
   76       -8.076168e-01
   77        2.042642e+00
   78        7.078927e-03
   79       -4.547600e+00
   80       -3.044880e+00
   81       -2.306696e+00
   82        1.900557e+00
   83       -2.182286e+00
   84        1.557785e+00
   85       -4.422751e-01
   86       -9.352139e-01
   87        8.138615e-01
   88       -6.016866e-01
   89        2.009730e+00
   90       -4.128592e+00
   91       -2.139970e+00
   92       -5.631567e-01
   93        1.936244e-01
   94       -2.725351e+00
   95        1.396061e-01
   96       -3.469126e+00
   97       -4.554743e+00
   98        2.748699e-01
   99        3.647231e+00
  100        2.819387e+00
;
param X:=
    1       -3.220546e+00
    2       -8.415876e+00
    3        1.758591e+00
    4        1.338653e+00
    5       -1.935732e+00
    6        9.545589e-01
    7       -5.928105e-01
    8        1.338082e+00
    9        1.578341e+00
   10        1.181868e-01
   11        2.916641e-02
   12        1.393854e+00
   13        2.237361e-01
   14       -8.026559e-02
   15        2.088970e+00
   16        5.638074e-01
   17        7.862689e-01
   18       -3.796798e-01
   19        1.541102e+00
   20       -1.872839e-01
   21        4.990014e-01
   22       -5.432232e-02
   23       -6.851315e-01
   24       -1.375316e+00
   25        2.245411e+00
   26        1.867253e+00
   27       -1.358509e+00
   28       -2.258012e-01
   29       -7.498116e+00
   30        1.682172e+00
   31       -1.067225e-01
   32        1.408296e+00
   33       -7.382364e-01
   34       -5.317802e-01
   35       -2.359222e-01
   36        5.655632e-01
   37       -1.521279e+00
   38        6.989571e-01
   39        2.620106e-01
   40       -1.805221e+00
   41       -8.553558e-01
   42        1.132378e+00
   43        9.376911e-01
   44        3.065160e-02
   45        7.808590e-01
   46       -1.298041e-01
   47       -4.578904e-01
   48        1.886802e-01
   49       -2.883737e-01
   50       -3.263552e+00
   51        1.796037e+00
   52       -9.347888e-01
   53       -2.605482e-01
   54        2.066946e-01
   55        1.224649e+00
   56       -9.125597e-01
   57       -1.365282e+00
   58       -4.473466e-01
   59        8.383518e-01
   60        2.233635e+00
   61       -9.262952e-02
   62       -2.211714e+00
   63       -1.564701e-02
   64        2.167415e-01
   65       -2.284927e-01
   66        2.207816e-01
   67        1.314323e-02
   68        4.750623e-01
   69       -1.403401e-01
   70       -6.217620e-01
   71       -1.125199e+00
   72        9.740469e-01
   73        4.605619e-01
   74        1.869416e+00
   75       -8.660482e-02
   76       -1.977946e-01
   77       -2.276307e-01
   78       -4.350909e-01
   79       -5.086582e-01
   80        1.549021e-01
   81        7.138668e-01
   82       -1.002973e+00
   83        4.448728e-01
   84        3.937700e-01
   85        1.668583e-01
   86       -1.980807e-01
   87        1.381616e+00
   88       -2.841623e+00
   89        2.284146e-02
   90       -2.176661e-01
   91        5.949494e-01
   92        8.020636e-01
   93        1.936244e-01
   94       -1.393893e-01
   95        1.118239e+00
   96       -1.131628e+00
   97       -9.691847e-01
   98        1.636858e+00
   99       -9.158594e-01
  100        2.819387e+00
;
param outliervec:=
    1    0
    2    0
    3    1
    4    1
    5    1
    6    1
    7    1
    8    1
    9    0
   10    1
   11    1
   12    1
   13    1
   14    1
   15    1
   16    1
   17    1
   18    1
   19    1
   20    1
   21    1
   22    1
   23    1
   24    1
   25    1
   26    1
   27    1
   28    1
   29    0
   30    0
   31    1
   32    1
   33    1
   34    1
   35    1
   36    1
   37    0
   38    1
   39    1
   40    1
   41    1
   42    1
   43    1
   44    1
   45    1
   46    0
   47    0
   48    1
   49    1
   50    0
   51    1
   52    1
   53    1
   54    1
   55    0
   56    1
   57    1
   58    1
   59    1
   60    0
   61    1
   62    1
   63    1
   64    1
   65    1
   66    1
   67    1
   68    1
   69    1
   70    1
   71    0
   72    1
   73    1
   74    1
   75    1
   76    1
   77    1
   78    1
   79    1
   80    1
   81    1
   82    1
   83    1
   84    1
   85    1
   86    1
   87    1
   88    1
   89    1
   90    1
   91    1
   92    1
   93    0
   94    1
   95    1
   96    1
   97    1
   98    1
   99    1
  100    0
;